decision_x1=[0,2];
decision_x2=[0,2];
decision_x3=[0,2];
decision_x4=[0,2];
decision_x5=[0,2];
decision_x6=[0,2];
decision_x7=[0,2];
decision_x8=[0,2];
decision_x9=[0,2];
decision_x10=[0,2];
decision_x11=[0,2];
decision_x12=[0,2];
random_y1=[0,2];
random_y2=[0,2];
random_y3=[0,2];
constraint_x3_x1=[
0,0,7.4|
0,1,3.4|
0,2,6.4|
1,0,2.2|
1,1,0.66|
1,2,2.1|
2,0,4.5|
2,1,5.4|
2,2,7.1|
];
constraint_x4_x3=[
0,0,5.5|
0,1,8.4|
0,2,6.7|
1,0,0.95|
1,1,7.4|
1,2,0.087|
2,0,9|
2,1,4.9|
2,2,2.2|
];
constraint_x5_x1=[
0,0,7.1|
0,1,6.9|
0,2,7.4|
1,0,3.7|
1,1,6.6|
1,2,4.4|
2,0,8.6|
2,1,0.18|
2,2,0.077|
];
constraint_x5_x2=[
0,0,3.8|
0,1,7.2|
0,2,5.7|
1,0,2.6|
1,1,3.8|
1,2,6.9|
2,0,7|
2,1,8.2|
2,2,9.1|
];
constraint_x5_x3=[
0,0,1.9|
0,1,7.5|
0,2,9.3|
1,0,9.7|
1,1,7.1|
1,2,2.9|
2,0,6.9|
2,1,8.1|
2,2,5.3|
];
constraint_x5_x4=[
0,0,7.8|
0,1,1.8|
0,2,5.7|
1,0,3.1|
1,1,4.5|
1,2,4.1|
2,0,3.4|
2,1,9.5|
2,2,2.3|
];
constraint_x6_x1=[
0,0,8.6|
0,1,8.7|
0,2,0.19|
1,0,2.6|
1,1,7.1|
1,2,8.5|
2,0,0.86|
2,1,2.2|
2,2,7.2|
];
constraint_x6_x3=[
0,0,6.5|
0,1,3.3|
0,2,2.7|
1,0,8.2|
1,1,4.7|
1,2,9.2|
2,0,4.2|
2,1,2.4|
2,2,8.5|
];
constraint_x6_x4=[
0,0,3.2|
0,1,8.9|
0,2,6.5|
1,0,2.3|
1,1,4.6|
1,2,3.5|
2,0,4.1|
2,1,9.1|
2,2,5.7|
];
constraint_x7_x1=[
0,0,8.4|
0,1,0.32|
0,2,7.2|
1,0,5.9|
1,1,2.1|
1,2,8.5|
2,0,6.1|
2,1,2.9|
2,2,0.18|
];
constraint_x7_x4=[
0,0,3.6|
0,1,5.9|
0,2,6.9|
1,0,8.5|
1,1,6.5|
1,2,6.6|
2,0,6.6|
2,1,4.6|
2,2,2.1|
];
constraint_x7_x6=[
0,0,5.7|
0,1,2.4|
0,2,5.8|
1,0,0.17|
1,1,9|
1,2,6|
2,0,6.9|
2,1,6.3|
2,2,2.5|
];
constraint_x8_x3=[
0,0,9.8|
0,1,6.7|
0,2,9.2|
1,0,0.058|
1,1,4.4|
1,2,1|
2,0,0.74|
2,1,3.3|
2,2,7.2|
];
constraint_x8_x4=[
0,0,4.1|
0,1,6.4|
0,2,6.5|
1,0,6|
1,1,8.1|
1,2,8.5|
2,0,8.2|
2,1,7.6|
2,2,5.4|
];
constraint_x8_x6=[
0,0,6.1|
0,1,5.8|
0,2,2|
1,0,9.5|
1,1,4.3|
1,2,0.39|
2,0,3.6|
2,1,3.6|
2,2,3.4|
];
constraint_x8_x7=[
0,0,0.63|
0,1,2.1|
0,2,1.9|
1,0,0.26|
1,1,3.9|
1,2,0.58|
2,0,6.4|
2,1,6.5|
2,2,5.8|
];
constraint_x9_x4=[
0,0,8.6|
0,1,7.1|
0,2,9.2|
1,0,3.8|
1,1,8.8|
1,2,5.8|
2,0,6.6|
2,1,2.6|
2,2,2.6|
];
constraint_x9_x8=[
0,0,9.9|
0,1,6.5|
0,2,4.2|
1,0,0.74|
1,1,7.9|
1,2,8.5|
2,0,2.1|
2,1,2.6|
2,2,3|
];
constraint_x10_x2=[
0,0,4.5|
0,1,0.5|
0,2,1.4|
1,0,3.6|
1,1,9.2|
1,2,5.8|
2,0,7.4|
2,1,0.44|
2,2,9.9|
];
constraint_x10_x5=[
0,0,9.3|
0,1,6.2|
0,2,4.2|
1,0,5.2|
1,1,7.2|
1,2,3|
2,0,7.9|
2,1,3.7|
2,2,0.76|
];
constraint_x10_x7=[
0,0,2.6|
0,1,4.4|
0,2,3.4|
1,0,8.7|
1,1,8.8|
1,2,7.1|
2,0,4.1|
2,1,0.059|
2,2,2.9|
];
constraint_x10_x8=[
0,0,3.5|
0,1,5.2|
0,2,5|
1,0,3.7|
1,1,9.8|
1,2,6.2|
2,0,6.1|
2,1,0.69|
2,2,4.1|
];
constraint_x11_x1=[
0,0,4.4|
0,1,0.15|
0,2,5.3|
1,0,1.9|
1,1,1.5|
1,2,1.1|
2,0,4.8|
2,1,8.4|
2,2,8|
];
constraint_x11_x2=[
0,0,0.42|
0,1,4.6|
0,2,7.5|
1,0,5.9|
1,1,0.34|
1,2,0.13|
2,0,9.8|
2,1,5.6|
2,2,8.5|
];
constraint_x11_x3=[
0,0,3.2|
0,1,3.9|
0,2,8|
1,0,9.2|
1,1,9.1|
1,2,8.8|
2,0,2.3|
2,1,3.8|
2,2,3.6|
];
constraint_x11_x4=[
0,0,4.8|
0,1,4.8|
0,2,9.6|
1,0,3|
1,1,2.3|
1,2,3.4|
2,0,9.6|
2,1,3.6|
2,2,4|
];
constraint_x11_x5=[
0,0,9.3|
0,1,3.9|
0,2,0.93|
1,0,6.7|
1,1,5.5|
1,2,1.3|
2,0,5.7|
2,1,6.7|
2,2,9.4|
];
constraint_x11_x10=[
0,0,0.83|
0,1,4.9|
0,2,2.3|
1,0,9.9|
1,1,7.8|
1,2,8.7|
2,0,0.46|
2,1,6.4|
2,2,4.2|
];
constraint_x12_x3=[
0,0,5|
0,1,1.2|
0,2,7.1|
1,0,2.2|
1,1,1.7|
1,2,6.1|
2,0,9.6|
2,1,3.6|
2,2,3.6|
];
constraint_x12_x5=[
0,0,8.4|
0,1,8.9|
0,2,3.7|
1,0,9.2|
1,1,2.9|
1,2,4.6|
2,0,7|
2,1,4.6|
2,2,0.22|
];
constraint_x12_x7=[
0,0,3.9|
0,1,8.5|
0,2,6.8|
1,0,5.4|
1,1,3.5|
1,2,0.47|
2,0,7.5|
2,1,6.4|
2,2,0.48|
];
constraint_x12_x8=[
0,0,3.3|
0,1,1.3|
0,2,3.4|
1,0,1.6|
1,1,4.4|
1,2,7|
2,0,6.8|
2,1,9.7|
2,2,1.1|
];
constraint_x12_x9=[
0,0,8.5|
0,1,7.7|
0,2,9.9|
1,0,1.4|
1,1,0.3|
1,2,9.5|
2,0,7.3|
2,1,3.5|
2,2,3.6|
];
constraint_x1_y1=[
0,0,3.4|
0,1,2.5|
0,2,9.8|
1,0,0.73|
1,1,8.1|
1,2,9.1|
2,0,1.7|
2,1,5.8|
2,2,5.2|
];
constraint_x2_y2=[
0,0,8|
0,1,0.027|
0,2,5.1|
1,0,2.9|
1,1,4.6|
1,2,1.7|
2,0,9|
2,1,9.4|
2,2,5.9|
];
constraint_x3_y3=[
0,0,0.84|
0,1,2.2|
0,2,5.1|
1,0,7.6|
1,1,0.29|
1,2,0.31|
2,0,6.6|
2,1,1.2|
2,2,4|
];
initial_distribution_y1=[0.076,0.59,0.33];
initial_distribution_y2=[0.31,0.17,0.52];
initial_distribution_y3=[0.012,0.2,0.79];
transition_y1=[
0.19,0.66,0.15|
0.21,0.28,0.5|
0.43,0.37,0.2|
];
transition_y2=[
0.34,0.41,0.26|
0.4,0.17,0.43|
0.44,0.18,0.38|
];
transition_y3=[
0.37,0.075,0.55|
0.15,0.37,0.48|
0.32,0.16,0.52|
];
